c "469819.clq"
p edge 80 304
e 1 5
e 1 6
e 1 7
e 1 19
e 1 30
e 1 33
e 1 67
e 2 5
e 2 6
e 2 7
e 2 10
e 2 12
e 2 14
e 2 18
e 2 20
e 2 29
e 2 53
e 2 64
e 2 65
e 2 66
e 3 5
e 3 6
e 3 7
e 3 8
e 3 11
e 3 14
e 3 22
e 3 36
e 3 42
e 3 75
e 4 5
e 4 7
e 4 8
e 4 25
e 4 29
e 4 38
e 4 50
e 4 59
e 4 68
e 5 6
e 5 8
e 5 9
e 5 10
e 5 12
e 5 13
e 5 16
e 5 17
e 5 20
e 5 21
e 5 23
e 5 25
e 5 26
e 5 27
e 5 28
e 5 29
e 5 31
e 5 32
e 5 35
e 5 38
e 5 41
e 5 43
e 5 50
e 5 51
e 5 64
e 5 65
e 5 66
e 6 9
e 6 17
e 6 18
e 6 19
e 6 42
e 6 54
e 7 8
e 7 9
e 7 10
e 7 11
e 7 13
e 7 14
e 7 15
e 7 16
e 7 17
e 7 24
e 7 25
e 7 28
e 7 35
e 7 37
e 7 43
e 7 46
e 7 48
e 7 51
e 7 55
e 7 65
e 7 68
e 7 71
e 7 72
e 7 74
e 8 9
e 8 11
e 8 13
e 8 20
e 8 22
e 8 24
e 8 27
e 8 32
e 8 37
e 8 38
e 8 41
e 8 48
e 8 56
e 8 69
e 8 71
e 8 72
e 8 78
e 9 10
e 9 12
e 9 13
e 9 14
e 9 15
e 9 21
e 9 22
e 9 33
e 9 44
e 9 54
e 9 60
e 9 63
e 9 67
e 9 76
e 10 11
e 10 15
e 10 18
e 10 25
e 10 26
e 10 30
e 10 41
e 10 54
e 10 58
e 10 59
e 10 62
e 10 63
e 10 76
e 10 77
e 10 80
e 11 12
e 11 15
e 11 37
e 11 54
e 12 23
e 12 31
e 13 16
e 13 34
e 13 35
e 13 36
e 13 45
e 13 48
e 13 49
e 13 62
e 13 64
e 14 16
e 14 33
e 14 39
e 14 69
e 14 79
e 15 17
e 15 30
e 15 73
e 16 18
e 16 19
e 16 23
e 16 24
e 16 36
e 16 47
e 16 80
e 17 21
e 17 40
e 17 43
e 17 57
e 17 69
e 17 78
e 18 19
e 18 23
e 18 28
e 18 31
e 18 53
e 18 57
e 19 20
e 19 21
e 19 34
e 19 40
e 19 42
e 19 47
e 19 50
e 19 52
e 19 56
e 19 57
e 19 79
e 20 22
e 20 24
e 20 26
e 20 31
e 20 34
e 20 43
e 20 60
e 20 61
e 20 68
e 20 70
e 21 51
e 21 61
e 21 63
e 22 36
e 22 47
e 22 52
e 23 30
e 23 46
e 23 49
e 24 26
e 24 27
e 24 29
e 24 37
e 24 45
e 24 53
e 24 73
e 24 78
e 25 39
e 25 40
e 25 45
e 25 46
e 25 48
e 25 61
e 25 66
e 25 77
e 26 27
e 26 78
e 27 28
e 27 32
e 27 35
e 27 59
e 27 70
e 28 34
e 28 53
e 29 32
e 29 33
e 29 40
e 29 46
e 29 55
e 29 56
e 29 79
e 30 39
e 30 73
e 30 75
e 31 44
e 31 62
e 31 74
e 32 58
e 32 63
e 32 71
e 33 38
e 33 49
e 33 50
e 33 60
e 35 42
e 35 44
e 35 66
e 36 39
e 36 49
e 36 56
e 37 55
e 37 70
e 38 41
e 38 44
e 38 65
e 38 67
e 38 71
e 40 52
e 40 73
e 42 69
e 43 47
e 43 58
e 43 62
e 43 76
e 43 77
e 44 45
e 44 52
e 44 67
e 44 80
e 46 77
e 48 76
e 50 51
e 50 57
e 50 74
e 50 75
e 51 59
e 51 74
e 52 55
e 54 75
e 55 58
e 55 79
e 55 80
e 56 61
e 56 70
e 59 60
e 61 72
e 62 64
e 67 68
e 69 72
